c 0.0031516551971435547 (encode time in sec)
p cnf 98 280
1 2 3 4 0
1 2 -3 7 0
1 -2 3 6 0
1 -2 -3 7 0
-1 2 3 5 0
-1 2 -3 0
-1 -2 3 0
-1 -2 -3 0
8 9 10 11 0
8 9 -10 12 0
8 -9 10 13 0
8 -9 -10 15 0
-8 9 10 14 0
-8 9 -10 0
-8 -9 10 0
-8 -9 -10 0
16 17 18 22 0
16 17 -18 20 0
16 -17 18 19 0
16 -17 -18 21 0
-16 17 18 23 0
-16 17 -18 0
-16 -17 18 0
-16 -17 -18 0
24 25 26 1 2 3 8 9 10 28 0
24 25 26 1 2 3 8 9 -10 27 0
24 25 26 1 2 3 8 -9 10 52 0
24 25 26 1 2 3 8 -9 -10 0
24 25 26 1 2 3 -8 9 10 29 0
24 25 26 1 2 -3 8 9 10 31 0
24 25 26 1 2 -3 8 9 -10 53 0
24 25 26 1 2 -3 8 -9 10 0
24 25 26 1 2 -3 8 -9 -10 0
24 25 26 1 2 -3 -8 9 10 29 0
24 25 26 1 -2 3 8 9 10 32 0
24 25 26 1 -2 3 8 9 -10 0
24 25 26 1 -2 3 8 -9 10 0
24 25 26 1 -2 3 8 -9 -10 0
24 25 26 1 -2 3 -8 9 10 0
24 25 26 1 -2 -3 8 9 10 33 0
24 25 26 1 -2 -3 8 9 -10 0
24 25 26 1 -2 -3 8 -9 10 0
24 25 26 1 -2 -3 8 -9 -10 0
24 25 26 1 -2 -3 -8 9 10 0
24 25 26 -1 2 3 8 9 10 0
24 25 26 -1 2 3 8 9 -10 0
24 25 26 -1 2 3 8 -9 10 0
24 25 26 -1 2 3 8 -9 -10 0
24 25 26 -1 2 3 -8 9 10 0
24 25 -26 1 2 3 8 9 10 0
24 25 -26 1 2 3 8 9 -10 34 0
24 25 -26 1 2 3 8 -9 10 50 0
24 25 -26 1 2 3 8 -9 -10 35 0
24 25 -26 1 2 3 -8 9 10 29 0
24 25 -26 1 2 -3 8 9 10 43 0
24 25 -26 1 2 -3 8 9 -10 36 0
24 25 -26 1 2 -3 8 -9 10 65 0
24 25 -26 1 2 -3 8 -9 -10 49 0
24 25 -26 1 2 -3 -8 9 10 29 0
24 25 -26 1 -2 3 8 9 10 40 0
24 25 -26 1 -2 3 8 9 -10 45 0
24 25 -26 1 -2 3 8 -9 10 37 0
24 25 -26 1 -2 3 8 -9 -10 0
24 25 -26 1 -2 3 -8 9 10 0
24 25 -26 1 -2 -3 8 9 10 61 0
24 25 -26 1 -2 -3 8 9 -10 59 0
24 25 -26 1 -2 -3 8 -9 10 0
24 25 -26 1 -2 -3 8 -9 -10 0
24 25 -26 1 -2 -3 -8 9 10 0
24 25 -26 -1 2 3 8 9 10 28 0
24 25 -26 -1 2 3 8 9 -10 29 0
24 25 -26 -1 2 3 8 -9 10 0
24 25 -26 -1 2 3 8 -9 -10 0
24 25 -26 -1 2 3 -8 9 10 0
24 -25 26 1 2 3 8 9 10 0
24 -25 26 1 2 3 8 9 -10 0
24 -25 26 1 2 3 8 -9 10 0
24 -25 26 1 2 3 8 -9 -10 62 0
24 -25 26 1 2 3 -8 9 10 29 0
24 -25 26 1 2 -3 8 9 10 0
24 -25 26 1 2 -3 8 9 -10 42 0
24 -25 26 1 2 -3 8 -9 10 66 0
24 -25 26 1 2 -3 8 -9 -10 57 0
24 -25 26 1 2 -3 -8 9 10 29 0
24 -25 26 1 -2 3 8 9 10 0
24 -25 26 1 -2 3 8 9 -10 54 0
24 -25 26 1 -2 3 8 -9 10 51 0
24 -25 26 1 -2 3 8 -9 -10 47 0
24 -25 26 1 -2 3 -8 9 10 0
24 -25 26 1 -2 -3 8 9 10 33 0
24 -25 26 1 -2 -3 8 9 -10 48 0
24 -25 26 1 -2 -3 8 -9 10 63 0
24 -25 26 1 -2 -3 8 -9 -10 55 0
24 -25 26 1 -2 -3 -8 9 10 0
24 -25 26 -1 2 3 8 9 10 0
24 -25 26 -1 2 3 8 9 -10 41 0
24 -25 26 -1 2 3 8 -9 10 64 0
24 -25 26 -1 2 3 8 -9 -10 0
24 -25 26 -1 2 3 -8 9 10 0
24 -25 -26 1 2 3 8 9 10 0
24 -25 -26 1 2 3 8 9 -10 0
24 -25 -26 1 2 3 8 -9 10 0
24 -25 -26 1 2 3 8 -9 -10 0
24 -25 -26 1 2 3 -8 9 10 29 0
24 -25 -26 1 2 -3 8 9 10 0
24 -25 -26 1 2 -3 8 9 -10 0
24 -25 -26 1 2 -3 8 -9 10 0
24 -25 -26 1 2 -3 8 -9 -10 0
24 -25 -26 1 2 -3 -8 9 10 29 0
24 -25 -26 1 -2 3 8 9 10 0
24 -25 -26 1 -2 3 8 9 -10 0
24 -25 -26 1 -2 3 8 -9 10 44 0
24 -25 -26 1 -2 3 8 -9 -10 58 0
24 -25 -26 1 -2 3 -8 9 10 28 0
24 -25 -26 1 -2 -3 8 9 10 0
24 -25 -26 1 -2 -3 8 9 -10 0
24 -25 -26 1 -2 -3 8 -9 10 56 0
24 -25 -26 1 -2 -3 8 -9 -10 38 0
24 -25 -26 1 -2 -3 -8 9 10 39 0
24 -25 -26 -1 2 3 8 9 10 0
24 -25 -26 -1 2 3 8 9 -10 29 0
24 -25 -26 -1 2 3 8 -9 10 41 0
24 -25 -26 -1 2 3 8 -9 -10 46 0
24 -25 -26 -1 2 3 -8 9 10 0
-24 25 26 1 2 3 8 9 10 0
-24 25 26 1 2 3 8 9 -10 0
-24 25 26 1 2 3 8 -9 10 0
-24 25 26 1 2 3 8 -9 -10 0
-24 25 26 1 2 3 -8 9 10 29 0
-24 25 26 1 2 -3 8 9 10 0
-24 25 26 1 2 -3 8 9 -10 0
-24 25 26 1 2 -3 8 -9 10 0
-24 25 26 1 2 -3 8 -9 -10 0
-24 25 26 1 2 -3 -8 9 10 29 0
-24 25 26 1 -2 3 8 9 10 0
-24 25 26 1 -2 3 8 9 -10 0
-24 25 26 1 -2 3 8 -9 10 0
-24 25 26 1 -2 3 8 -9 -10 0
-24 25 26 1 -2 3 -8 9 10 0
-24 25 26 1 -2 -3 8 9 10 0
-24 25 26 1 -2 -3 8 9 -10 0
-24 25 26 1 -2 -3 8 -9 10 0
-24 25 26 1 -2 -3 8 -9 -10 55 0
-24 25 26 1 -2 -3 -8 9 10 39 0
-24 25 26 -1 2 3 8 9 10 0
-24 25 26 -1 2 3 8 9 -10 0
-24 25 26 -1 2 3 8 -9 10 0
-24 25 26 -1 2 3 8 -9 -10 60 0
-24 25 26 -1 2 3 -8 9 10 28 0
-24 25 -26 0
-24 -25 26 0
-24 -25 -26 0
67 68 69 16 17 18 24 25 26 70 0
67 68 69 16 17 18 24 25 -26 71 0
67 68 69 16 17 18 24 -25 26 0
67 68 69 16 17 18 24 -25 -26 0
67 68 69 16 17 18 -24 25 26 70 0
67 68 69 16 17 -18 24 25 26 73 0
67 68 69 16 17 -18 24 25 -26 88 0
67 68 69 16 17 -18 24 -25 26 0
67 68 69 16 17 -18 24 -25 -26 0
67 68 69 16 17 -18 -24 25 26 0
67 68 69 16 -17 18 24 25 26 74 0
67 68 69 16 -17 18 24 25 -26 0
67 68 69 16 -17 18 24 -25 26 0
67 68 69 16 -17 18 24 -25 -26 0
67 68 69 16 -17 18 -24 25 26 0
67 68 69 16 -17 -18 24 25 26 75 0
67 68 69 16 -17 -18 24 25 -26 0
67 68 69 16 -17 -18 24 -25 26 0
67 68 69 16 -17 -18 24 -25 -26 0
67 68 69 16 -17 -18 -24 25 26 0
67 68 69 -16 17 18 24 25 26 0
67 68 69 -16 17 18 24 25 -26 0
67 68 69 -16 17 18 24 -25 26 0
67 68 69 -16 17 18 24 -25 -26 0
67 68 69 -16 17 18 -24 25 26 70 0
67 68 -69 16 17 18 24 25 26 70 0
67 68 -69 16 17 18 24 25 -26 76 0
67 68 -69 16 17 18 24 -25 26 77 0
67 68 -69 16 17 18 24 -25 -26 0
67 68 -69 16 17 18 -24 25 26 70 0
67 68 -69 16 17 -18 24 25 26 0
67 68 -69 16 17 -18 24 25 -26 78 0
67 68 -69 16 17 -18 24 -25 26 79 0
67 68 -69 16 17 -18 24 -25 -26 0
67 68 -69 16 17 -18 -24 25 26 0
67 68 -69 16 -17 18 24 25 26 70 0
67 68 -69 16 -17 18 24 25 -26 84 0
67 68 -69 16 -17 18 24 -25 26 98 0
67 68 -69 16 -17 18 24 -25 -26 0
67 68 -69 16 -17 18 -24 25 26 0
67 68 -69 16 -17 -18 24 25 26 77 0
67 68 -69 16 -17 -18 24 25 -26 95 0
67 68 -69 16 -17 -18 24 -25 26 0
67 68 -69 16 -17 -18 24 -25 -26 0
67 68 -69 16 -17 -18 -24 25 26 0
67 68 -69 -16 17 18 24 25 26 73 0
67 68 -69 -16 17 18 24 25 -26 80 0
67 68 -69 -16 17 18 24 -25 26 0
67 68 -69 -16 17 18 24 -25 -26 0
67 68 -69 -16 17 18 -24 25 26 70 0
67 -68 69 16 17 18 24 25 26 70 0
67 -68 69 16 17 18 24 25 -26 0
67 -68 69 16 17 18 24 -25 26 75 0
67 -68 69 16 17 18 24 -25 -26 75 0
67 -68 69 16 17 18 -24 25 26 70 0
67 -68 69 16 17 -18 24 25 26 0
67 -68 69 16 17 -18 24 25 -26 88 0
67 -68 69 16 17 -18 24 -25 26 90 0
67 -68 69 16 17 -18 24 -25 -26 85 0
67 -68 69 16 17 -18 -24 25 26 0
67 -68 69 16 -17 18 24 25 26 0
67 -68 69 16 -17 18 24 25 -26 89 0
67 -68 69 16 -17 18 24 -25 26 93 0
67 -68 69 16 -17 18 24 -25 -26 86 0
67 -68 69 16 -17 18 -24 25 26 0
67 -68 69 16 -17 -18 24 25 26 0
67 -68 69 16 -17 -18 24 25 -26 87 0
67 -68 69 16 -17 -18 24 -25 26 91 0
67 -68 69 16 -17 -18 24 -25 -26 0
67 -68 69 16 -17 -18 -24 25 26 0
67 -68 69 -16 17 18 24 25 26 0
67 -68 69 -16 17 18 24 25 -26 80 0
67 -68 69 -16 17 18 24 -25 26 81 0
67 -68 69 -16 17 18 24 -25 -26 0
67 -68 69 -16 17 18 -24 25 26 70 0
67 -68 -69 16 17 18 24 25 26 70 0
67 -68 -69 16 17 18 24 25 -26 0
67 -68 -69 16 17 18 24 -25 26 0
67 -68 -69 16 17 18 24 -25 -26 77 0
67 -68 -69 16 17 18 -24 25 26 70 0
67 -68 -69 16 17 -18 24 25 26 0
67 -68 -69 16 17 -18 24 25 -26 0
67 -68 -69 16 17 -18 24 -25 26 0
67 -68 -69 16 17 -18 24 -25 -26 96 0
67 -68 -69 16 17 -18 -24 25 26 0
67 -68 -69 16 -17 18 24 25 26 0
67 -68 -69 16 -17 18 24 25 -26 0
67 -68 -69 16 -17 18 24 -25 26 82 0
67 -68 -69 16 -17 18 24 -25 -26 97 0
67 -68 -69 16 -17 18 -24 25 26 0
67 -68 -69 16 -17 -18 24 25 26 0
67 -68 -69 16 -17 -18 24 25 -26 0
67 -68 -69 16 -17 -18 24 -25 26 92 0
67 -68 -69 16 -17 -18 24 -25 -26 73 0
67 -68 -69 16 -17 -18 -24 25 26 0
67 -68 -69 -16 17 18 24 25 26 0
67 -68 -69 -16 17 18 24 25 -26 0
67 -68 -69 -16 17 18 24 -25 26 83 0
67 -68 -69 -16 17 18 24 -25 -26 73 0
67 -68 -69 -16 17 18 -24 25 26 70 0
-67 68 69 16 17 18 24 25 26 70 0
-67 68 69 16 17 18 24 25 -26 0
-67 68 69 16 17 18 24 -25 26 0
-67 68 69 16 17 18 24 -25 -26 0
-67 68 69 16 17 18 -24 25 26 70 0
-67 68 69 16 17 -18 24 25 26 0
-67 68 69 16 17 -18 24 25 -26 0
-67 68 69 16 17 -18 24 -25 26 0
-67 68 69 16 17 -18 24 -25 -26 0
-67 68 69 16 17 -18 -24 25 26 73 0
-67 68 69 16 -17 18 24 25 26 0
-67 68 69 16 -17 18 24 25 -26 0
-67 68 69 16 -17 18 24 -25 26 0
-67 68 69 16 -17 18 24 -25 -26 94 0
-67 68 69 16 -17 18 -24 25 26 73 0
-67 68 69 16 -17 -18 24 25 26 0
-67 68 69 16 -17 -18 24 25 -26 0
-67 68 69 16 -17 -18 24 -25 26 0
-67 68 69 16 -17 -18 24 -25 -26 0
-67 68 69 16 -17 -18 -24 25 26 73 0
-67 68 69 -16 17 18 24 25 26 0
-67 68 69 -16 17 18 24 25 -26 0
-67 68 69 -16 17 18 24 -25 26 0
-67 68 69 -16 17 18 24 -25 -26 0
-67 68 69 -16 17 18 -24 25 26 70 0
-67 68 -69 0
-67 -68 69 0
-67 -68 -69 0
